WARNING: for repeatability, setting FPU to use double precision
============================[ Problem Statistics ]=============================
|                                                                             |
|  Number of variables:           100                                         |
|  Number of clauses:             449                                         |
|  Parse time:                   0.00 s                                       |
|  Eliminated clauses:           0.00 Mb                                      |
|  Simplification time:          0.00 s                                       |
|                                                                             |
============================[ Search Statistics ]==============================
| Conflicts |          ORIGINAL         |          LEARNT          | Progress |
|           |    Vars  Clauses Literals |    Limit  Clauses Lit/Cl |          |
===============================================================================
|       100 |      99      446     1342 |      163      100      7 |  0.010 % |
===============================================================================
restarts              : 2
conflicts             : 182            (60809 /sec)
decisions             : 228            (0.00 % random) (76178 /sec)
propagations          : 4175           (1394921 /sec)
conflict literals     : 1283           (12.06 % deleted)
Memory used           : 13.00 MB
CPU time              : 0.002993 s

SATISFIABLE
